; benchmark generated from python API
(set-info :status unknown)
(declare-fun DISJ_W_S1_R_S1 () Bool)
(declare-fun R_E1_V6 () Bool)
(declare-fun W_S1_V6 () Bool)
(declare-fun R_E2_V6 () Bool)
(declare-fun W_S1_V3 () Bool)
(declare-fun W_S1_V1 () Bool)
(declare-fun R_S1_V6 () Bool)
(declare-fun R_S1_V4 () Bool)
(declare-fun R_S1_V5 () Bool)
(declare-fun R_S1_V2 () Bool)
(declare-fun R_S1_V3 () Bool)
(declare-fun R_S1_V1 () Bool)
(declare-fun R_E2_V4 () Bool)
(declare-fun R_E2_V2 () Bool)
(declare-fun R_E1_V4 () Bool)
(declare-fun R_E1_V2 () Bool)
(declare-fun R_E1_V5 () Bool)
(declare-fun R_E2_V5 () Bool)
(declare-fun W_S1_V5 () Bool)
(declare-fun W_S1_V4 () Bool)
(declare-fun W_S1_V2 () Bool)
(declare-fun R_E1_V3 () Bool)
(declare-fun R_E1_V1 () Bool)
(declare-fun R_E2_V3 () Bool)
(declare-fun R_E2_V1 () Bool)
(declare-fun DISJ_W_S1_R_E1 () Bool)
(declare-fun DISJ_W_S1_R_E2 () Bool)
(assert
 (let (($x5346 (not DISJ_W_S1_R_S1)))
 (let (($x4647 (not (and W_S1_V6 R_E1_V6))))
 (let (($x5653 (not (and W_S1_V6 R_E2_V6))))
 (let (($x5165 (forall ((V2_0 Int) )(forall ((V5_0 Int) )(forall ((V4_0 Int) )(forall ((V6_0 Int) )(forall ((MW_S1_V1 Bool) )(forall ((MW_S1_V3 Bool) )(forall ((MW_S1_V2 Bool) )(forall ((MW_S1_V5 Bool) )(forall ((MW_S1_V4 Bool) )(forall ((MW_S1_V6 Bool) )(forall ((S1_V1_!8833 Int) )(forall ((S1_V1_!8839 Int) )(forall ((S1_V1_!8846 Int) )(forall ((S1_V1_!8852 Int) )(forall ((S1_V1_!8861 Int) )(forall ((S1_V1_!8867 Int) )(forall ((S1_V1_!8874 Int) )(forall ((S1_V1_!8880 Int) )(forall ((S1_V3_!8834 Int) )(forall ((S1_V3_!8840 Int) )(forall ((S1_V3_!8847 Int) )(forall ((S1_V3_!8853 Int) )(forall ((S1_V3_!8862 Int) )(forall ((S1_V3_!8868 Int) )(forall ((S1_V3_!8875 Int) )(forall ((S1_V3_!8881 Int) )(forall ((S1_V2_!8835 Int) )(forall ((S1_V2_!8841 Int) )(forall ((S1_V2_!8848 Int) )(forall ((S1_V2_!8854 Int) )(forall ((S1_V2_!8863 Int) )(forall ((S1_V2_!8869 Int) )(forall ((S1_V2_!8876 Int) )(forall ((S1_V2_!8882 Int) )(forall ((E1_!8830 Int) )(forall ((E1_!8858 Int) )(forall ((E1_!8860 Int) )(forall ((E1_!8873 Int) )(forall ((S1_V5_!8836 Int) )(forall ((S1_V5_!8842 Int) )(forall ((S1_V5_!8849 Int) )(forall ((S1_V5_!8855 Int) )(forall ((S1_V5_!8864 Int) )(forall ((S1_V5_!8870 Int) )(forall ((S1_V5_!8877 Int) )(forall ((S1_V5_!8883 Int) )(forall ((E2_!8831 Int) )(forall ((E2_!8832 Int) )(forall ((E2_!8845 Int) )(forall ((E2_!8859 Int) )(forall ((S1_V4_!8837 Int) )(forall ((S1_V4_!8843 Int) )(forall ((S1_V4_!8850 Int) )(forall ((S1_V4_!8856 Int) )(forall ((S1_V4_!8865 Int) )(forall ((S1_V4_!8871 Int) )(forall ((S1_V4_!8878 Int) )(forall ((S1_V4_!8884 Int) )(forall ((S1_V6_!8838 Int) )(forall ((S1_V6_!8844 Int) )(forall ((S1_V6_!8851 Int) )(forall ((S1_V6_!8857 Int) )(forall ((S1_V6_!8866 Int) )(forall ((S1_V6_!8872 Int) )(forall ((S1_V6_!8879 Int) )(forall ((S1_V6_!8885 Int) )(let ((?x329 (ite MW_S1_V3 S1_V3_!8868 E2_!8859)))
 (let ((?x6016 (+ 1 ?x329)))
 (let ((?x2318 (ite MW_S1_V3 S1_V3_!8881 ?x6016)))
 (let ((?x2095 (ite MW_S1_V3 S1_V3_!8847 E2_!8845)))
 (let ((?x6083 (+ 1 ?x2095)))
 (let ((?x3386 (ite MW_S1_V3 S1_V3_!8853 ?x6083)))
 (let ((?x2735 (ite MW_S1_V1 S1_V1_!8874 E1_!8873)))
 (let ((?x2764 (+ 1 ?x2735)))
 (let ((?x4286 (ite MW_S1_V1 S1_V1_!8880 ?x2764)))
 (let ((?x5480 (ite MW_S1_V1 S1_V1_!8839 E1_!8830)))
 (let ((?x5079 (+ 1 ?x5480)))
 (let ((?x5917 (ite MW_S1_V1 S1_V1_!8852 ?x5079)))
 (let (($x1785 (and (= ?x5917 ?x4286) (= ?x3386 ?x2318) (= (ite MW_S1_V2 S1_V2_!8854 V2_0) (ite MW_S1_V2 S1_V2_!8882 V2_0)) (= (ite MW_S1_V5 S1_V5_!8855 V5_0) (ite MW_S1_V5 S1_V5_!8883 V5_0)) (= (ite MW_S1_V4 S1_V4_!8856 V4_0) (ite MW_S1_V4 S1_V4_!8884 V4_0)) (= (ite MW_S1_V6 S1_V6_!8857 V6_0) (ite MW_S1_V6 S1_V6_!8885 V6_0)))))
 (let (($x3680 (>= (ite MW_S1_V1 S1_V1_!8867 (+ 1 (ite MW_S1_V1 S1_V1_!8861 E1_!8860))) (+ (- 1) (ite MW_S1_V2 S1_V2_!8869 V2_0)))))
 (let (($x3246 (>= (ite MW_S1_V3 S1_V3_!8840 (+ 1 (ite MW_S1_V3 S1_V3_!8834 E2_!8832))) (+ (- 1) (ite MW_S1_V4 S1_V4_!8843 V4_0)))))
 (let (($x4414 (and (not (<= V4_0 E2_!8831)) (not (<= V2_0 E1_!8830)) (not (<= V4_0 E2_!8832)) (not (<= (ite MW_S1_V4 S1_V4_!8837 V4_0) (+ 1 (ite MW_S1_V3 S1_V3_!8834 E2_!8832)))) $x3246 (not (<= (ite MW_S1_V2 S1_V2_!8841 V2_0) ?x5079)) (not (<= (ite MW_S1_V4 S1_V4_!8843 V4_0) E2_!8845)) (not (<= (ite MW_S1_V4 S1_V4_!8850 V4_0) ?x6083)) (>= ?x3386 (+ (- 1) (ite MW_S1_V4 S1_V4_!8856 V4_0))) (>= ?x5917 (+ (- 1) (ite MW_S1_V2 S1_V2_!8854 V2_0))) (not (<= V2_0 E1_!8858)) (not (<= V4_0 E2_!8859)) (not (<= V2_0 E1_!8860)) (not (<= (ite MW_S1_V2 S1_V2_!8863 V2_0) (+ 1 (ite MW_S1_V1 S1_V1_!8861 E1_!8860)))) $x3680 (not (<= (ite MW_S1_V4 S1_V4_!8871 V4_0) ?x6016)) (not (<= (ite MW_S1_V2 S1_V2_!8869 V2_0) E1_!8873)) (not (<= (ite MW_S1_V2 S1_V2_!8876 V2_0) ?x2764)) (>= ?x4286 (+ (- 1) (ite MW_S1_V2 S1_V2_!8882 V2_0))) (>= ?x2318 (+ (- 1) (ite MW_S1_V4 S1_V4_!8884 V4_0))))))
 (let (($x3797 (= S1_V6_!8885 S1_V6_!8879)))
 (let (($x5129 (and (or (not R_S1_V1) (= ?x2735 (+ (- 1) E1_!8873))) (or (not R_S1_V3) (= (ite MW_S1_V3 S1_V3_!8875 ?x6016) ?x6016)) (or (not R_S1_V2) (= (ite MW_S1_V2 S1_V2_!8876 V2_0) (ite MW_S1_V2 S1_V2_!8869 V2_0))) (or (not R_S1_V5) (= (ite MW_S1_V5 S1_V5_!8877 V5_0) (ite MW_S1_V5 S1_V5_!8870 V5_0))) (or (not R_S1_V4) (= (ite MW_S1_V4 S1_V4_!8878 V4_0) (ite MW_S1_V4 S1_V4_!8871 V4_0))) (or (not R_S1_V6) (= (ite MW_S1_V6 S1_V6_!8879 V6_0) (ite MW_S1_V6 S1_V6_!8872 V6_0))))))
 (let (($x1075 (not $x5129)))
 (let (($x2827 (= S1_V6_!8885 S1_V6_!8866)))
 (let (($x5486 (not R_S1_V6)))
 (let (($x238 (or $x5486 (= (ite MW_S1_V6 S1_V6_!8879 V6_0) V6_0))))
 (let (($x3270 (not R_S1_V4)))
 (let (($x5031 (or $x3270 (= (ite MW_S1_V4 S1_V4_!8878 V4_0) V4_0))))
 (let (($x5537 (not R_S1_V5)))
 (let (($x806 (or $x5537 (= (ite MW_S1_V5 S1_V5_!8877 V5_0) V5_0))))
 (let (($x1030 (not R_S1_V2)))
 (let (($x3093 (or $x1030 (= (ite MW_S1_V2 S1_V2_!8876 V2_0) V2_0))))
 (let (($x881 (and (or (not R_S1_V1) (= ?x2735 (+ (- 1) E1_!8860))) (or (not R_S1_V3) (= (ite MW_S1_V3 S1_V3_!8875 ?x6016) E2_!8859)) $x3093 $x806 $x5031 $x238)))
 (let (($x5097 (not $x881)))
 (let (($x5299 (= S1_V6_!8885 S1_V6_!8851)))
 (let (($x3673 (and (or (not R_S1_V1) (= ?x2735 ?x5480)) (or (not R_S1_V3) (= (ite MW_S1_V3 S1_V3_!8875 ?x6016) E2_!8845)) (or $x1030 (= (ite MW_S1_V2 S1_V2_!8876 V2_0) (ite MW_S1_V2 S1_V2_!8841 V2_0))) (or $x5537 (= (ite MW_S1_V5 S1_V5_!8877 V5_0) (ite MW_S1_V5 S1_V5_!8842 V5_0))) (or $x3270 (= (ite MW_S1_V4 S1_V4_!8878 V4_0) (ite MW_S1_V4 S1_V4_!8843 V4_0))) (or $x5486 (= (ite MW_S1_V6 S1_V6_!8879 V6_0) (ite MW_S1_V6 S1_V6_!8844 V6_0))))))
 (let (($x5310 (not $x3673)))
 (let (($x1364 (and (or (not R_S1_V1) (= ?x2735 (+ (- 1) E1_!8830))) (or (not R_S1_V3) (= (ite MW_S1_V3 S1_V3_!8875 ?x6016) E2_!8832)) $x3093 $x806 $x5031 $x238)))
 (let (($x4289 (not $x1364)))
 (let (($x4141 (= S1_V6_!8872 S1_V6_!8885)))
 (let (($x2710 (and (or (not R_S1_V1) (= (ite MW_S1_V1 S1_V1_!8861 E1_!8860) ?x2735)) (or (not R_S1_V3) (= (ite MW_S1_V3 S1_V3_!8862 E2_!8859) (ite MW_S1_V3 S1_V3_!8875 ?x6016))) (or $x1030 (= (ite MW_S1_V2 S1_V2_!8863 V2_0) (ite MW_S1_V2 S1_V2_!8876 V2_0))) (or $x5537 (= (ite MW_S1_V5 S1_V5_!8864 V5_0) (ite MW_S1_V5 S1_V5_!8877 V5_0))) (or $x3270 (= (ite MW_S1_V4 S1_V4_!8865 V4_0) (ite MW_S1_V4 S1_V4_!8878 V4_0))) (or $x5486 (= (ite MW_S1_V6 S1_V6_!8866 V6_0) (ite MW_S1_V6 S1_V6_!8879 V6_0))))))
 (let (($x3990 (not $x2710)))
 (let (($x240 (= S1_V6_!8872 S1_V6_!8879)))
 (let (($x2996 (and (or (not R_S1_V1) (= (ite MW_S1_V1 S1_V1_!8861 E1_!8860) (+ (- 1) E1_!8873))) (or (not R_S1_V3) (= (ite MW_S1_V3 S1_V3_!8862 E2_!8859) ?x6016)) (or $x1030 (= (ite MW_S1_V2 S1_V2_!8863 V2_0) (ite MW_S1_V2 S1_V2_!8869 V2_0))) (or $x5537 (= (ite MW_S1_V5 S1_V5_!8864 V5_0) (ite MW_S1_V5 S1_V5_!8870 V5_0))) (or $x3270 (= (ite MW_S1_V4 S1_V4_!8865 V4_0) (ite MW_S1_V4 S1_V4_!8871 V4_0))) (or $x5486 (= (ite MW_S1_V6 S1_V6_!8866 V6_0) (ite MW_S1_V6 S1_V6_!8872 V6_0))))))
 (let (($x4033 (not $x2996)))
 (let (($x2036 (= S1_V6_!8872 S1_V6_!8866)))
 (let (($x5772 (or $x5486 (= (ite MW_S1_V6 S1_V6_!8866 V6_0) V6_0))))
 (let (($x105 (or $x3270 (= (ite MW_S1_V4 S1_V4_!8865 V4_0) V4_0))))
 (let (($x5981 (or $x5537 (= (ite MW_S1_V5 S1_V5_!8864 V5_0) V5_0))))
 (let (($x1382 (or $x1030 (= (ite MW_S1_V2 S1_V2_!8863 V2_0) V2_0))))
 (let (($x3596 (and (or (not R_S1_V1) (= (ite MW_S1_V1 S1_V1_!8861 E1_!8860) (+ (- 1) E1_!8860))) (or (not R_S1_V3) (= (ite MW_S1_V3 S1_V3_!8862 E2_!8859) E2_!8859)) $x1382 $x5981 $x105 $x5772)))
 (let (($x5136 (not $x3596)))
 (let (($x3591 (= S1_V6_!8872 S1_V6_!8857)))
 (let (($x1572 (not R_S1_V1)))
 (let (($x6003 (or $x1572 (= (ite MW_S1_V1 S1_V1_!8861 E1_!8860) (+ (- 1) (ite MW_S1_V1 S1_V1_!8846 ?x5079))))))
 (let (($x6027 (and $x6003 (or (not R_S1_V3) (= (ite MW_S1_V3 S1_V3_!8862 E2_!8859) ?x6083)) (or $x1030 (= (ite MW_S1_V2 S1_V2_!8863 V2_0) (ite MW_S1_V2 S1_V2_!8848 V2_0))) (or $x5537 (= (ite MW_S1_V5 S1_V5_!8864 V5_0) (ite MW_S1_V5 S1_V5_!8849 V5_0))) (or $x3270 (= (ite MW_S1_V4 S1_V4_!8865 V4_0) (ite MW_S1_V4 S1_V4_!8850 V4_0))) (or $x5486 (= (ite MW_S1_V6 S1_V6_!8866 V6_0) (ite MW_S1_V6 S1_V6_!8851 V6_0))))))
 (let (($x5928 (not $x6027)))
 (let (($x6001 (= S1_V6_!8872 S1_V6_!8851)))
 (let (($x5163 (and (or $x1572 (= (ite MW_S1_V1 S1_V1_!8861 E1_!8860) ?x5480)) (or (not R_S1_V3) (= (ite MW_S1_V3 S1_V3_!8862 E2_!8859) E2_!8845)) (or $x1030 (= (ite MW_S1_V2 S1_V2_!8863 V2_0) (ite MW_S1_V2 S1_V2_!8841 V2_0))) (or $x5537 (= (ite MW_S1_V5 S1_V5_!8864 V5_0) (ite MW_S1_V5 S1_V5_!8842 V5_0))) (or $x3270 (= (ite MW_S1_V4 S1_V4_!8865 V4_0) (ite MW_S1_V4 S1_V4_!8843 V4_0))) (or $x5486 (= (ite MW_S1_V6 S1_V6_!8866 V6_0) (ite MW_S1_V6 S1_V6_!8844 V6_0))))))
 (let (($x3014 (not $x5163)))
 (let (($x5828 (= S1_V6_!8872 S1_V6_!8844)))
 (let (($x4082 (not R_S1_V3)))
 (let (($x957 (or $x1572 (= (ite MW_S1_V1 S1_V1_!8861 E1_!8860) (+ (- 1) (ite MW_S1_V1 S1_V1_!8833 E1_!8830))))))
 (let (($x5738 (and $x957 (or $x4082 (= (ite MW_S1_V3 S1_V3_!8862 E2_!8859) (+ 1 (ite MW_S1_V3 S1_V3_!8834 E2_!8832)))) (or $x1030 (= (ite MW_S1_V2 S1_V2_!8863 V2_0) (ite MW_S1_V2 S1_V2_!8835 V2_0))) (or $x5537 (= (ite MW_S1_V5 S1_V5_!8864 V5_0) (ite MW_S1_V5 S1_V5_!8836 V5_0))) (or $x3270 (= (ite MW_S1_V4 S1_V4_!8865 V4_0) (ite MW_S1_V4 S1_V4_!8837 V4_0))) (or $x5486 (= (ite MW_S1_V6 S1_V6_!8866 V6_0) (ite MW_S1_V6 S1_V6_!8838 V6_0))))))
 (let (($x2172 (not $x5738)))
 (let (($x3436 (and (or $x1572 (= (ite MW_S1_V1 S1_V1_!8861 E1_!8860) (+ (- 1) E1_!8830))) (or $x4082 (= (ite MW_S1_V3 S1_V3_!8862 E2_!8859) E2_!8832)) $x1382 $x5981 $x105 $x5772)))
 (let (($x875 (not $x3436)))
 (let (($x3802 (= S1_V6_!8866 S1_V6_!8879)))
 (let ((?x315 (ite MW_S1_V6 S1_V6_!8872 V6_0)))
 (let (($x630 (= V6_0 ?x315)))
 (let (($x5092 (or $x5486 $x630)))
 (let ((?x3959 (ite MW_S1_V4 S1_V4_!8871 V4_0)))
 (let (($x463 (= V4_0 ?x3959)))
 (let (($x2477 (or $x3270 $x463)))
 (let (($x5935 (or $x5537 (= V5_0 (ite MW_S1_V5 S1_V5_!8870 V5_0)))))
 (let ((?x5319 (ite MW_S1_V2 S1_V2_!8869 V2_0)))
 (let (($x2780 (= V2_0 ?x5319)))
 (let (($x2052 (or $x1030 $x2780)))
 (let (($x328 (and (or $x1572 (= E1_!8860 E1_!8873)) (or $x4082 (= E2_!8859 ?x6016)) $x2052 $x5935 $x2477 $x5092)))
 (let (($x5724 (not $x328)))
 (let (($x3406 (= S1_V6_!8857 S1_V6_!8885)))
 (let (($x5742 (and (or $x1572 (= (ite MW_S1_V1 S1_V1_!8846 ?x5079) ?x2764)) (or $x4082 (= ?x2095 (+ (- 1) (ite MW_S1_V3 S1_V3_!8875 ?x6016)))) (or $x1030 (= (ite MW_S1_V2 S1_V2_!8848 V2_0) (ite MW_S1_V2 S1_V2_!8876 V2_0))) (or $x5537 (= (ite MW_S1_V5 S1_V5_!8849 V5_0) (ite MW_S1_V5 S1_V5_!8877 V5_0))) (or $x3270 (= (ite MW_S1_V4 S1_V4_!8850 V4_0) (ite MW_S1_V4 S1_V4_!8878 V4_0))) (or $x5486 (= (ite MW_S1_V6 S1_V6_!8851 V6_0) (ite MW_S1_V6 S1_V6_!8879 V6_0))))))
 (let (($x201 (not $x5742)))
 (let (($x4382 (= S1_V6_!8857 S1_V6_!8879)))
 (let (($x2380 (and (or $x1572 (= (ite MW_S1_V1 S1_V1_!8846 ?x5079) E1_!8873)) (or $x4082 (= ?x2095 ?x329)) (or $x1030 (= (ite MW_S1_V2 S1_V2_!8848 V2_0) ?x5319)) (or $x5537 (= (ite MW_S1_V5 S1_V5_!8849 V5_0) (ite MW_S1_V5 S1_V5_!8870 V5_0))) (or $x3270 (= (ite MW_S1_V4 S1_V4_!8850 V4_0) ?x3959)) (or $x5486 (= (ite MW_S1_V6 S1_V6_!8851 V6_0) ?x315)))))
 (let (($x4928 (not $x2380)))
 (let (($x762 (= S1_V6_!8857 S1_V6_!8866)))
 (let (($x2304 (or $x5486 (= (ite MW_S1_V6 S1_V6_!8851 V6_0) V6_0))))
 (let (($x771 (or $x3270 (= (ite MW_S1_V4 S1_V4_!8850 V4_0) V4_0))))
 (let (($x6035 (or $x5537 (= (ite MW_S1_V5 S1_V5_!8849 V5_0) V5_0))))
 (let (($x5220 (or $x1030 (= (ite MW_S1_V2 S1_V2_!8848 V2_0) V2_0))))
 (let (($x4315 (and (or $x1572 (= (ite MW_S1_V1 S1_V1_!8846 ?x5079) E1_!8860)) (or $x4082 (= ?x2095 (+ (- 1) E2_!8859))) $x5220 $x6035 $x771 $x2304)))
 (let (($x5749 (not $x4315)))
 (let (($x3840 (= S1_V6_!8857 S1_V6_!8851)))
 (let (($x2189 (and (or $x1572 (= (ite MW_S1_V1 S1_V1_!8846 ?x5079) ?x5079)) (or $x4082 (= ?x2095 (+ (- 1) E2_!8845))) (or $x1030 (= (ite MW_S1_V2 S1_V2_!8848 V2_0) (ite MW_S1_V2 S1_V2_!8841 V2_0))) (or $x5537 (= (ite MW_S1_V5 S1_V5_!8849 V5_0) (ite MW_S1_V5 S1_V5_!8842 V5_0))) (or $x3270 (= (ite MW_S1_V4 S1_V4_!8850 V4_0) (ite MW_S1_V4 S1_V4_!8843 V4_0))) (or $x5486 (= (ite MW_S1_V6 S1_V6_!8851 V6_0) (ite MW_S1_V6 S1_V6_!8844 V6_0))))))
 (let (($x1440 (not $x2189)))
 (let (($x3283 (and (or $x1572 (= (ite MW_S1_V1 S1_V1_!8846 ?x5079) E1_!8830)) (or $x4082 (= ?x2095 (+ (- 1) E2_!8832))) $x5220 $x6035 $x771 $x2304)))
 (let (($x4918 (not $x3283)))
 (let (($x1268 (= S1_V6_!8851 S1_V6_!8879)))
 (let (($x2108 (and (or $x1572 (= ?x5480 (+ (- 1) E1_!8873))) (or $x4082 (= E2_!8845 ?x6016)) (or $x1030 (= (ite MW_S1_V2 S1_V2_!8841 V2_0) ?x5319)) (or $x5537 (= (ite MW_S1_V5 S1_V5_!8842 V5_0) (ite MW_S1_V5 S1_V5_!8870 V5_0))) (or $x3270 (= (ite MW_S1_V4 S1_V4_!8843 V4_0) ?x3959)) (or $x5486 (= (ite MW_S1_V6 S1_V6_!8844 V6_0) ?x315)))))
 (let (($x2237 (not $x2108)))
 (let (($x3381 (= S1_V6_!8851 S1_V6_!8866)))
 (let (($x3511 (or $x5486 (= (ite MW_S1_V6 S1_V6_!8844 V6_0) V6_0))))
 (let (($x1287 (or $x3270 (= (ite MW_S1_V4 S1_V4_!8843 V4_0) V4_0))))
 (let (($x4575 (or $x5537 (= (ite MW_S1_V5 S1_V5_!8842 V5_0) V5_0))))
 (let (($x3792 (or $x1030 (= (ite MW_S1_V2 S1_V2_!8841 V2_0) V2_0))))
 (let (($x931 (and (or $x1572 (= ?x5480 (+ (- 1) E1_!8860))) (or $x4082 (= E2_!8845 E2_!8859)) $x3792 $x4575 $x1287 $x3511)))
 (let (($x44 (not $x931)))
 (let (($x3411 (= S1_V6_!8844 S1_V6_!8885)))
 (let (($x2585 (or $x4082 (= (ite MW_S1_V3 S1_V3_!8834 E2_!8832) (+ (- 1) (ite MW_S1_V3 S1_V3_!8875 ?x6016))))))
 (let (($x5936 (and (or $x1572 (= (ite MW_S1_V1 S1_V1_!8833 E1_!8830) ?x2764)) $x2585 (or $x1030 (= (ite MW_S1_V2 S1_V2_!8835 V2_0) (ite MW_S1_V2 S1_V2_!8876 V2_0))) (or $x5537 (= (ite MW_S1_V5 S1_V5_!8836 V5_0) (ite MW_S1_V5 S1_V5_!8877 V5_0))) (or $x3270 (= (ite MW_S1_V4 S1_V4_!8837 V4_0) (ite MW_S1_V4 S1_V4_!8878 V4_0))) (or $x5486 (= (ite MW_S1_V6 S1_V6_!8838 V6_0) (ite MW_S1_V6 S1_V6_!8879 V6_0))))))
 (let (($x3753 (not $x5936)))
 (let (($x1994 (= S1_V6_!8844 S1_V6_!8879)))
 (let (($x5952 (and (or $x1572 (= (ite MW_S1_V1 S1_V1_!8833 E1_!8830) E1_!8873)) (or $x4082 (= (ite MW_S1_V3 S1_V3_!8834 E2_!8832) ?x329)) (or $x1030 (= (ite MW_S1_V2 S1_V2_!8835 V2_0) ?x5319)) (or $x5537 (= (ite MW_S1_V5 S1_V5_!8836 V5_0) (ite MW_S1_V5 S1_V5_!8870 V5_0))) (or $x3270 (= (ite MW_S1_V4 S1_V4_!8837 V4_0) ?x3959)) (or $x5486 (= (ite MW_S1_V6 S1_V6_!8838 V6_0) ?x315)))))
 (let (($x4729 (not $x5952)))
 (let (($x3453 (= S1_V6_!8844 S1_V6_!8866)))
 (let (($x6325 (or $x5486 (= (ite MW_S1_V6 S1_V6_!8838 V6_0) V6_0))))
 (let (($x5341 (or $x3270 (= (ite MW_S1_V4 S1_V4_!8837 V4_0) V4_0))))
 (let (($x708 (or $x5537 (= (ite MW_S1_V5 S1_V5_!8836 V5_0) V5_0))))
 (let (($x2702 (or $x1030 (= (ite MW_S1_V2 S1_V2_!8835 V2_0) V2_0))))
 (let (($x3348 (and (or $x1572 (= (ite MW_S1_V1 S1_V1_!8833 E1_!8830) E1_!8860)) (or $x4082 (= (ite MW_S1_V3 S1_V3_!8834 E2_!8832) (+ (- 1) E2_!8859))) $x2702 $x708 $x5341 $x6325)))
 (let (($x176 (not $x3348)))
 (let (($x2990 (= S1_V6_!8844 S1_V6_!8857)))
 (let (($x1110 (and (or $x1572 (= (ite MW_S1_V1 S1_V1_!8833 E1_!8830) (ite MW_S1_V1 S1_V1_!8846 ?x5079))) (or $x4082 (= (ite MW_S1_V3 S1_V3_!8834 E2_!8832) ?x2095)) (or $x1030 (= (ite MW_S1_V2 S1_V2_!8835 V2_0) (ite MW_S1_V2 S1_V2_!8848 V2_0))) (or $x5537 (= (ite MW_S1_V5 S1_V5_!8836 V5_0) (ite MW_S1_V5 S1_V5_!8849 V5_0))) (or $x3270 (= (ite MW_S1_V4 S1_V4_!8837 V4_0) (ite MW_S1_V4 S1_V4_!8850 V4_0))) (or $x5486 (= (ite MW_S1_V6 S1_V6_!8838 V6_0) (ite MW_S1_V6 S1_V6_!8851 V6_0))))))
 (let (($x2958 (not $x1110)))
 (let (($x3689 (= S1_V6_!8844 S1_V6_!8851)))
 (let (($x5281 (and (or $x1572 (= (ite MW_S1_V1 S1_V1_!8833 E1_!8830) ?x5079)) (or $x4082 (= (ite MW_S1_V3 S1_V3_!8834 E2_!8832) (+ (- 1) E2_!8845))) (or $x1030 (= (ite MW_S1_V2 S1_V2_!8835 V2_0) (ite MW_S1_V2 S1_V2_!8841 V2_0))) (or $x5537 (= (ite MW_S1_V5 S1_V5_!8836 V5_0) (ite MW_S1_V5 S1_V5_!8842 V5_0))) (or $x3270 (= (ite MW_S1_V4 S1_V4_!8837 V4_0) (ite MW_S1_V4 S1_V4_!8843 V4_0))) (or $x5486 (= (ite MW_S1_V6 S1_V6_!8838 V6_0) (ite MW_S1_V6 S1_V6_!8844 V6_0))))))
 (let (($x1796 (not $x5281)))
 (let (($x3703 (and (or $x1572 (= (ite MW_S1_V1 S1_V1_!8833 E1_!8830) E1_!8830)) (or $x4082 (= (ite MW_S1_V3 S1_V3_!8834 E2_!8832) (+ (- 1) E2_!8832))) $x2702 $x708 $x5341 $x6325)))
 (let (($x1036 (not $x3703)))
 (let (($x2347 (and (or $x1572 (= E1_!8830 E1_!8873)) (or $x4082 (= E2_!8832 ?x6016)) $x2052 $x5935 $x2477 $x5092)))
 (let (($x1661 (not $x2347)))
 (let (($x2565 (or (not (and (or $x1572 (= E1_!8830 E1_!8860)) (or $x4082 (= E2_!8832 E2_!8859)))) (= S1_V6_!8838 S1_V6_!8866))))
 (let ((?x205 (ite MW_S1_V6 S1_V6_!8844 V6_0)))
 (let (($x1438 (= V6_0 ?x205)))
 (let (($x4623 (or $x5486 $x1438)))
 (let ((?x3526 (ite MW_S1_V4 S1_V4_!8843 V4_0)))
 (let (($x4621 (= V4_0 ?x3526)))
 (let (($x4796 (or $x3270 $x4621)))
 (let (($x5790 (or $x5537 (= V5_0 (ite MW_S1_V5 S1_V5_!8842 V5_0)))))
 (let ((?x1638 (ite MW_S1_V2 S1_V2_!8841 V2_0)))
 (let (($x5902 (= V2_0 ?x1638)))
 (let (($x2199 (or $x1030 $x5902)))
 (let (($x4471 (and (or $x1572 (= E1_!8830 ?x5079)) (or $x4082 (= E2_!8832 E2_!8845)) $x2199 $x5790 $x4796 $x4623)))
 (let (($x2154 (not $x4471)))
 (let (($x3286 (= S1_V4_!8865 S1_V4_!8884)))
 (let (($x3334 (or $x5486 (= V6_0 (ite MW_S1_V6 S1_V6_!8879 V6_0)))))
 (let (($x1333 (or $x3270 (= V4_0 (ite MW_S1_V4 S1_V4_!8878 V4_0)))))
 (let (($x337 (or $x5537 (= V5_0 (ite MW_S1_V5 S1_V5_!8877 V5_0)))))
 (let (($x2641 (or $x1030 (= V2_0 (ite MW_S1_V2 S1_V2_!8876 V2_0)))))
 (let (($x6018 (and (or $x1572 (= E1_!8860 ?x2764)) (or $x4082 (= E2_!8859 (ite MW_S1_V3 S1_V3_!8875 ?x6016))) $x2641 $x337 $x1333 $x3334)))
 (let (($x3298 (not $x6018)))
 (let (($x3420 (= S1_V4_!8865 S1_V4_!8871)))
 (let (($x3524 (or $x5486 (= V6_0 (ite MW_S1_V6 S1_V6_!8866 V6_0)))))
 (let (($x3564 (or $x3270 (= V4_0 (ite MW_S1_V4 S1_V4_!8865 V4_0)))))
 (let (($x3584 (or $x5537 (= V5_0 (ite MW_S1_V5 S1_V5_!8864 V5_0)))))
 (let (($x3102 (or $x1030 (= V2_0 (ite MW_S1_V2 S1_V2_!8863 V2_0)))))
 (let (($x2326 (and (or $x1572 (= E1_!8860 (+ 1 (ite MW_S1_V1 S1_V1_!8861 E1_!8860)))) (or $x4082 (= E2_!8859 (ite MW_S1_V3 S1_V3_!8862 E2_!8859))) $x3102 $x3584 $x3564 $x3524)))
 (let (($x2515 (not $x2326)))
 (let (($x454 (= S1_V4_!8865 S1_V4_!8856)))
 (let (($x3958 (or $x5486 (= V6_0 (ite MW_S1_V6 S1_V6_!8851 V6_0)))))
 (let (($x4823 (or $x3270 (= V4_0 (ite MW_S1_V4 S1_V4_!8850 V4_0)))))
 (let (($x737 (or $x5537 (= V5_0 (ite MW_S1_V5 S1_V5_!8849 V5_0)))))
 (let (($x4006 (or $x1030 (= V2_0 (ite MW_S1_V2 S1_V2_!8848 V2_0)))))
 (let (($x3175 (and (or $x1572 (= E1_!8860 (ite MW_S1_V1 S1_V1_!8846 ?x5079))) (or $x4082 (= E2_!8859 ?x6083)) $x4006 $x737 $x4823 $x3958)))
 (let (($x5805 (not $x3175)))
 (let (($x4083 (or $x5486 (= V6_0 (ite MW_S1_V6 S1_V6_!8838 V6_0)))))
 (let (($x1759 (or $x3270 (= V4_0 (ite MW_S1_V4 S1_V4_!8837 V4_0)))))
 (let (($x4528 (or $x5537 (= V5_0 (ite MW_S1_V5 S1_V5_!8836 V5_0)))))
 (let (($x4571 (or $x1030 (= V2_0 (ite MW_S1_V2 S1_V2_!8835 V2_0)))))
 (let (($x1215 (and (or $x1572 (= E1_!8860 (ite MW_S1_V1 S1_V1_!8833 E1_!8830))) (or $x4082 (= E2_!8859 (+ 1 (ite MW_S1_V3 S1_V3_!8834 E2_!8832)))) $x4571 $x4528 $x1759 $x4083)))
 (let (($x4838 (not $x1215)))
 (let (($x5941 (not (and (or $x1572 (= E1_!8860 E1_!8830)) (or $x4082 (= E2_!8859 E2_!8832))))))
 (let (($x4833 (= S1_V4_!8850 S1_V4_!8884)))
 (let (($x857 (and (or $x1572 (= ?x5480 ?x2735)) (or $x4082 (= E2_!8845 (ite MW_S1_V3 S1_V3_!8875 ?x6016))) (or $x1030 (= ?x1638 (ite MW_S1_V2 S1_V2_!8876 V2_0))) (or $x5537 (= (ite MW_S1_V5 S1_V5_!8842 V5_0) (ite MW_S1_V5 S1_V5_!8877 V5_0))) (or $x3270 (= ?x3526 (ite MW_S1_V4 S1_V4_!8878 V4_0))) (or $x5486 (= ?x205 (ite MW_S1_V6 S1_V6_!8879 V6_0))))))
 (let (($x2025 (not $x857)))
 (let (($x1782 (= S1_V4_!8850 S1_V4_!8871)))
 (let (($x610 (and (or $x1572 (= ?x5480 (ite MW_S1_V1 S1_V1_!8861 E1_!8860))) (or $x4082 (= E2_!8845 (ite MW_S1_V3 S1_V3_!8862 E2_!8859))) (or $x1030 (= ?x1638 (ite MW_S1_V2 S1_V2_!8863 V2_0))) (or $x5537 (= (ite MW_S1_V5 S1_V5_!8842 V5_0) (ite MW_S1_V5 S1_V5_!8864 V5_0))) (or $x3270 (= ?x3526 (ite MW_S1_V4 S1_V4_!8865 V4_0))) (or $x5486 (= ?x205 (ite MW_S1_V6 S1_V6_!8866 V6_0))))))
 (let (($x3132 (not $x610)))
 (let (($x3925 (= S1_V4_!8850 S1_V4_!8856)))
 (let (($x1569 (and (or $x1572 (= ?x5480 (+ (- 1) (ite MW_S1_V1 S1_V1_!8846 ?x5079)))) (or $x4082 (= E2_!8845 ?x6083)) (or $x1030 (= ?x1638 (ite MW_S1_V2 S1_V2_!8848 V2_0))) (or $x5537 (= (ite MW_S1_V5 S1_V5_!8842 V5_0) (ite MW_S1_V5 S1_V5_!8849 V5_0))) (or $x3270 (= ?x3526 (ite MW_S1_V4 S1_V4_!8850 V4_0))) (or $x5486 (= ?x205 (ite MW_S1_V6 S1_V6_!8851 V6_0))))))
 (let (($x736 (not $x1569)))
 (let (($x2490 (and (or $x1572 (= ?x5480 (+ (- 1) (ite MW_S1_V1 S1_V1_!8833 E1_!8830)))) (or $x4082 (= E2_!8845 (+ 1 (ite MW_S1_V3 S1_V3_!8834 E2_!8832)))) (or $x1030 (= ?x1638 (ite MW_S1_V2 S1_V2_!8835 V2_0))) (or $x5537 (= (ite MW_S1_V5 S1_V5_!8842 V5_0) (ite MW_S1_V5 S1_V5_!8836 V5_0))) (or $x3270 (= ?x3526 (ite MW_S1_V4 S1_V4_!8837 V4_0))) (or $x5486 (= ?x205 (ite MW_S1_V6 S1_V6_!8838 V6_0))))))
 (let (($x1252 (not $x2490)))
 (let (($x4260 (and (or $x1572 (= ?x5480 (+ (- 1) E1_!8830))) (or $x4082 (= E2_!8845 E2_!8832)) $x3792 $x4575 $x1287 $x3511)))
 (let (($x1402 (not $x4260)))
 (let (($x5971 (or $x4082 (= (ite MW_S1_V3 S1_V3_!8834 E2_!8832) (+ (- 1) (ite MW_S1_V3 S1_V3_!8862 E2_!8859))))))
 (let (($x2660 (and (or $x1572 (= (ite MW_S1_V1 S1_V1_!8833 E1_!8830) (+ 1 (ite MW_S1_V1 S1_V1_!8861 E1_!8860)))) $x5971 (or $x1030 (= (ite MW_S1_V2 S1_V2_!8835 V2_0) (ite MW_S1_V2 S1_V2_!8863 V2_0))) (or $x5537 (= (ite MW_S1_V5 S1_V5_!8836 V5_0) (ite MW_S1_V5 S1_V5_!8864 V5_0))) (or $x3270 (= (ite MW_S1_V4 S1_V4_!8837 V4_0) (ite MW_S1_V4 S1_V4_!8865 V4_0))) (or $x5486 (= (ite MW_S1_V6 S1_V6_!8838 V6_0) (ite MW_S1_V6 S1_V6_!8866 V6_0))))))
 (let (($x1558 (not $x2660)))
 (let (($x4764 (and (or $x1572 (= E1_!8830 ?x2764)) (or $x4082 (= E2_!8832 (ite MW_S1_V3 S1_V3_!8875 ?x6016))) $x2641 $x337 $x1333 $x3334)))
 (let (($x2012 (= E2_!8859 E2_!8845)))
 (let (($x2530 (and (or (not R_E2_V2) $x5902) (or (not R_E2_V4) $x4621) (or (not R_E2_V6) $x1438))))
 (let (($x4071 (not $x2530)))
 (let (($x1479 (= E2_!8832 E2_!8859)))
 (let (($x988 (= E2_!8832 E2_!8831)))
 (let (($x1954 (= S1_V5_!8883 S1_V5_!8870)))
 (let (($x5251 (and (or $x1572 (= ?x2735 (ite MW_S1_V1 S1_V1_!8861 E1_!8860))) (or $x4082 (= (ite MW_S1_V3 S1_V3_!8875 ?x6016) (ite MW_S1_V3 S1_V3_!8862 E2_!8859))) (or $x1030 (= (ite MW_S1_V2 S1_V2_!8876 V2_0) (ite MW_S1_V2 S1_V2_!8863 V2_0))) (or $x5537 (= (ite MW_S1_V5 S1_V5_!8877 V5_0) (ite MW_S1_V5 S1_V5_!8864 V5_0))) (or $x3270 (= (ite MW_S1_V4 S1_V4_!8878 V4_0) (ite MW_S1_V4 S1_V4_!8865 V4_0))) (or $x5486 (= (ite MW_S1_V6 S1_V6_!8879 V6_0) (ite MW_S1_V6 S1_V6_!8866 V6_0))))))
 (let (($x1828 (not $x5251)))
 (let (($x4031 (and (or $x1572 (= ?x2735 (+ (- 1) (ite MW_S1_V1 S1_V1_!8846 ?x5079)))) (or $x4082 (= (ite MW_S1_V3 S1_V3_!8875 ?x6016) ?x6083)) (or $x1030 (= (ite MW_S1_V2 S1_V2_!8876 V2_0) (ite MW_S1_V2 S1_V2_!8848 V2_0))) (or $x5537 (= (ite MW_S1_V5 S1_V5_!8877 V5_0) (ite MW_S1_V5 S1_V5_!8849 V5_0))) (or $x3270 (= (ite MW_S1_V4 S1_V4_!8878 V4_0) (ite MW_S1_V4 S1_V4_!8850 V4_0))) (or $x5486 (= (ite MW_S1_V6 S1_V6_!8879 V6_0) (ite MW_S1_V6 S1_V6_!8851 V6_0))))))
 (let (($x2204 (not $x4031)))
 (let (($x2536 (and (or $x1572 (= ?x2735 (+ (- 1) (ite MW_S1_V1 S1_V1_!8833 E1_!8830)))) (or $x4082 (= (ite MW_S1_V3 S1_V3_!8875 ?x6016) (+ 1 (ite MW_S1_V3 S1_V3_!8834 E2_!8832)))) (or $x1030 (= (ite MW_S1_V2 S1_V2_!8876 V2_0) (ite MW_S1_V2 S1_V2_!8835 V2_0))) (or $x5537 (= (ite MW_S1_V5 S1_V5_!8877 V5_0) (ite MW_S1_V5 S1_V5_!8836 V5_0))) (or $x3270 (= (ite MW_S1_V4 S1_V4_!8878 V4_0) (ite MW_S1_V4 S1_V4_!8837 V4_0))) (or $x5486 (= (ite MW_S1_V6 S1_V6_!8879 V6_0) (ite MW_S1_V6 S1_V6_!8838 V6_0))))))
 (let (($x1942 (not $x2536)))
 (let (($x5463 (and (or $x1572 (= E1_!8873 (+ 1 (ite MW_S1_V1 S1_V1_!8861 E1_!8860)))) (or $x4082 (= ?x329 (+ (- 1) (ite MW_S1_V3 S1_V3_!8862 E2_!8859)))) (or $x1030 (= ?x5319 (ite MW_S1_V2 S1_V2_!8863 V2_0))) (or $x5537 (= (ite MW_S1_V5 S1_V5_!8870 V5_0) (ite MW_S1_V5 S1_V5_!8864 V5_0))) (or $x3270 (= ?x3959 (ite MW_S1_V4 S1_V4_!8865 V4_0))) (or $x5486 (= ?x315 (ite MW_S1_V6 S1_V6_!8866 V6_0))))))
 (let (($x1237 (and (or $x1572 (= E1_!8873 (ite MW_S1_V1 S1_V1_!8846 ?x5079))) (or $x4082 (= ?x329 ?x2095)) (or $x1030 (= ?x5319 (ite MW_S1_V2 S1_V2_!8848 V2_0))) (or $x5537 (= (ite MW_S1_V5 S1_V5_!8870 V5_0) (ite MW_S1_V5 S1_V5_!8849 V5_0))) (or $x3270 (= ?x3959 (ite MW_S1_V4 S1_V4_!8850 V4_0))) (or $x5486 (= ?x315 (ite MW_S1_V6 S1_V6_!8851 V6_0))))))
 (let (($x2250 (not $x1237)))
 (let (($x4441 (and (or $x1572 (= E1_!8830 (+ 1 (ite MW_S1_V1 S1_V1_!8861 E1_!8860)))) (or $x4082 (= E2_!8832 (ite MW_S1_V3 S1_V3_!8862 E2_!8859))) $x3102 $x3584 $x3564 $x3524)))
 (let (($x3607 (and (or $x1572 (= E1_!8830 (ite MW_S1_V1 S1_V1_!8846 ?x5079))) (or $x4082 (= E2_!8832 ?x6083)) $x4006 $x737 $x4823 $x3958)))
 (let (($x3907 (not $x3607)))
 (let (($x3730 (= S1_V5_!8836 S1_V5_!8842)))
 (let (($x624 (and (or $x1572 (= E1_!8830 (ite MW_S1_V1 S1_V1_!8833 E1_!8830))) (or $x4082 (= E2_!8832 (+ 1 (ite MW_S1_V3 S1_V3_!8834 E2_!8832)))) $x4571 $x4528 $x1759 $x4083)))
 (let (($x731 (not $x624)))
 (let (($x6067 (and (or (not R_E1_V2) (= ?x5319 V2_0)) (or (not R_E1_V4) (= ?x3959 V4_0)) (or (not R_E1_V6) (= ?x315 V6_0)))))
 (let (($x2224 (= E1_!8860 E1_!8873)))
 (let (($x2860 (and (or (not R_E1_V2) $x2780) (or (not R_E1_V4) $x463) (or (not R_E1_V6) $x630))))
 (let (($x991 (not $x2860)))
 (let (($x5980 (= E1_!8860 E1_!8830)))
 (let (($x1056 (= E1_!8830 E1_!8858)))
 (let (($x2376 (= S1_V2_!8876 S1_V2_!8848)))
 (let (($x1656 (and (or $x1572 (= E1_!8873 ?x5079)) (or $x4082 (= ?x329 (+ (- 1) E2_!8845))) (or $x1030 (= ?x5319 ?x1638)) (or $x5537 (= (ite MW_S1_V5 S1_V5_!8870 V5_0) (ite MW_S1_V5 S1_V5_!8842 V5_0))) (or $x3270 (= ?x3959 ?x3526)) (or $x5486 (= ?x315 ?x205)))))
 (let (($x253 (not $x1656)))
 (let (($x3522 (= S1_V2_!8863 S1_V2_!8848)))
 (let (($x313 (not (and (or $x1572 (= E1_!8860 ?x5079)) (or $x4082 $x2012) $x2199 $x5790 $x4796 $x4623))))
 (let (($x2447 (= ?x315 V6_0)))
 (let (($x2623 (or $x5486 $x2447)))
 (let (($x6021 (= ?x3959 V4_0)))
 (let (($x541 (or $x3270 $x6021)))
 (let (($x4370 (or $x5537 (= (ite MW_S1_V5 S1_V5_!8870 V5_0) V5_0))))
 (let (($x3135 (= ?x5319 V2_0)))
 (let (($x5012 (or $x1030 $x3135)))
 (let (($x180 (and (or $x1572 (= E1_!8873 E1_!8860)) (or $x4082 (= ?x329 (+ (- 1) E2_!8859))) $x5012 $x4370 $x541 $x2623)))
 (let (($x2991 (and (or $x1572 (= E1_!8873 (ite MW_S1_V1 S1_V1_!8833 E1_!8830))) (or $x4082 (= ?x329 (ite MW_S1_V3 S1_V3_!8834 E2_!8832))) (or $x1030 (= ?x5319 (ite MW_S1_V2 S1_V2_!8835 V2_0))) (or $x5537 (= (ite MW_S1_V5 S1_V5_!8870 V5_0) (ite MW_S1_V5 S1_V5_!8836 V5_0))) (or $x3270 (= ?x3959 (ite MW_S1_V4 S1_V4_!8837 V4_0))) (or $x5486 (= ?x315 (ite MW_S1_V6 S1_V6_!8838 V6_0))))))
 (let (($x270 (and (or $x1572 (= E1_!8873 E1_!8830)) (or $x4082 (= ?x329 (+ (- 1) E2_!8832))) $x5012 $x4370 $x541 $x2623)))
 (let (($x1159 (and (or $x1572 (= (ite MW_S1_V1 S1_V1_!8846 ?x5079) (ite MW_S1_V1 S1_V1_!8833 E1_!8830))) (or $x4082 (= ?x2095 (ite MW_S1_V3 S1_V3_!8834 E2_!8832))) (or $x1030 (= (ite MW_S1_V2 S1_V2_!8848 V2_0) (ite MW_S1_V2 S1_V2_!8835 V2_0))) (or $x5537 (= (ite MW_S1_V5 S1_V5_!8849 V5_0) (ite MW_S1_V5 S1_V5_!8836 V5_0))) (or $x3270 (= (ite MW_S1_V4 S1_V4_!8850 V4_0) (ite MW_S1_V4 S1_V4_!8837 V4_0))) (or $x5486 (= (ite MW_S1_V6 S1_V6_!8851 V6_0) (ite MW_S1_V6 S1_V6_!8838 V6_0))))))
 (let (($x4676 (and (or $x1572 (= (ite MW_S1_V1 S1_V1_!8846 ?x5079) (+ 1 (ite MW_S1_V1 S1_V1_!8861 E1_!8860)))) (or $x4082 (= ?x2095 (+ (- 1) (ite MW_S1_V3 S1_V3_!8862 E2_!8859)))) (or $x1030 (= (ite MW_S1_V2 S1_V2_!8848 V2_0) (ite MW_S1_V2 S1_V2_!8863 V2_0))) (or $x5537 (= (ite MW_S1_V5 S1_V5_!8849 V5_0) (ite MW_S1_V5 S1_V5_!8864 V5_0))) (or $x3270 (= (ite MW_S1_V4 S1_V4_!8850 V4_0) (ite MW_S1_V4 S1_V4_!8865 V4_0))) (or $x5486 (= (ite MW_S1_V6 S1_V6_!8851 V6_0) (ite MW_S1_V6 S1_V6_!8866 V6_0))))))
 (let (($x3458 (and (or $x1661 (= S1_V1_!8833 S1_V1_!8874)) (or $x1036 (= S1_V1_!8839 S1_V1_!8833)) (or $x1796 (= S1_V1_!8839 S1_V1_!8846)) (or $x2958 (= S1_V1_!8839 S1_V1_!8852)) (or $x176 (= S1_V1_!8839 S1_V1_!8861)) (or $x1558 (= S1_V1_!8839 S1_V1_!8867)) (or $x4729 (= S1_V1_!8839 S1_V1_!8874)) (or $x3753 (= S1_V1_!8839 S1_V1_!8880)) (or $x1402 (= S1_V1_!8846 S1_V1_!8833)) (or $x3132 (= S1_V1_!8846 S1_V1_!8867)) (or $x2237 (= S1_V1_!8846 S1_V1_!8874)) (or $x2025 (= S1_V1_!8846 S1_V1_!8880)) (or $x4918 (= S1_V1_!8852 S1_V1_!8833)) (or $x1440 (= S1_V1_!8852 S1_V1_!8846)) (or (not $x4676) (= S1_V1_!8852 S1_V1_!8867)) (or $x4928 (= S1_V1_!8852 S1_V1_!8874)) (or $x201 (= S1_V1_!8852 S1_V1_!8880)) (or $x5941 (= S1_V1_!8861 S1_V1_!8833)) (or $x313 (= S1_V1_!8861 S1_V1_!8846)) (or $x5805 (= S1_V1_!8861 S1_V1_!8852)) (or $x2515 (= S1_V1_!8861 S1_V1_!8867)) (or $x5724 (= S1_V1_!8861 S1_V1_!8874)) (or $x3298 (= S1_V1_!8861 S1_V1_!8880)) (or $x875 (= S1_V1_!8867 S1_V1_!8833)) (or $x4033 (= S1_V1_!8867 S1_V1_!8874)) (or $x3990 (= S1_V1_!8867 S1_V1_!8880)) (or $x4289 (= S1_V1_!8880 S1_V1_!8833)) (or $x1075 (= S1_V1_!8880 S1_V1_!8874)) (or $x1036 (= S1_V3_!8840 S1_V3_!8834)) (or $x1402 (= S1_V3_!8847 S1_V3_!8834)) (or $x1252 (= S1_V3_!8847 S1_V3_!8840)) (or $x44 (= S1_V3_!8847 S1_V3_!8862)) (or $x4918 (= S1_V3_!8853 S1_V3_!8834)) (or (not $x1159) (= S1_V3_!8853 S1_V3_!8840)) (or $x1440 (= S1_V3_!8853 S1_V3_!8847)) (or $x5749 (= S1_V3_!8853 S1_V3_!8862)) (or $x5941 (= S1_V3_!8862 S1_V3_!8834)) (or $x4838 (= S1_V3_!8862 S1_V3_!8840)) (or $x875 (= S1_V3_!8868 S1_V3_!8834)) (or $x2172 (= S1_V3_!8868 S1_V3_!8840)) (or $x3014 (= S1_V3_!8868 S1_V3_!8847)) (or $x5928 (= S1_V3_!8868 S1_V3_!8853)) (or $x5136 (= S1_V3_!8868 S1_V3_!8862)) (or $x4033 (= S1_V3_!8868 S1_V3_!8875)) (or (not $x270) (= S1_V3_!8875 S1_V3_!8834)) (or (not $x2991) (= S1_V3_!8875 S1_V3_!8840)) (or $x253 (= S1_V3_!8875 S1_V3_!8847)) (or $x2250 (= S1_V3_!8875 S1_V3_!8853)) (or (not $x180) (= S1_V3_!8875 S1_V3_!8862)) (or $x4289 (= S1_V3_!8881 S1_V3_!8834)) (or $x1942 (= S1_V3_!8881 S1_V3_!8840)) (or $x5310 (= S1_V3_!8881 S1_V3_!8847)) (or $x2204 (= S1_V3_!8881 S1_V3_!8853)) (or $x5097 (= S1_V3_!8881 S1_V3_!8862)) (or $x1828 (= S1_V3_!8881 S1_V3_!8868)) (or $x1075 (= S1_V3_!8881 S1_V3_!8875)) (or $x731 (= S1_V2_!8835 S1_V2_!8841)) (or $x2154 (= S1_V2_!8835 S1_V2_!8848)) (or $x3907 (= S1_V2_!8835 S1_V2_!8854)) (or $x1661 (= S1_V2_!8835 S1_V2_!8876)) (or $x1796 (= S1_V2_!8841 S1_V2_!8848)) (or $x2958 (= S1_V2_!8841 S1_V2_!8854)) (or $x4729 (= S1_V2_!8841 S1_V2_!8876)) (or $x1440 (= S1_V2_!8854 S1_V2_!8848)) (or $x5941 (= S1_V2_!8863 S1_V2_!8835)) (or $x4838 (= S1_V2_!8863 S1_V2_!8841)) (or $x313 $x3522) (or $x5805 (= S1_V2_!8863 S1_V2_!8854)) (or $x5724 (= S1_V2_!8863 S1_V2_!8876)) (or $x875 (= S1_V2_!8869 S1_V2_!8835)) (or $x2172 (= S1_V2_!8869 S1_V2_!8841)) (or $x3014 (= S1_V2_!8869 S1_V2_!8848)) (or $x5928 (= S1_V2_!8869 S1_V2_!8854)) (or $x5136 (= S1_V2_!8869 S1_V2_!8863)) (or $x4033 (= S1_V2_!8869 S1_V2_!8876)) (or $x253 $x2376) (or $x2250 (= S1_V2_!8876 S1_V2_!8854)) (or $x4289 (= S1_V2_!8882 S1_V2_!8835)) (or $x1942 (= S1_V2_!8882 S1_V2_!8841)) (or $x5310 (= S1_V2_!8882 S1_V2_!8848)) (or $x2204 (= S1_V2_!8882 S1_V2_!8854)) (or $x5097 (= S1_V2_!8882 S1_V2_!8863)) (or $x1828 (= S1_V2_!8882 S1_V2_!8869)) (or $x1075 (= S1_V2_!8882 S1_V2_!8876)) $x1056 (or $x991 (= E1_!8830 E1_!8873)) $x5980 (= E1_!8860 E1_!8858) (or $x991 $x2224) (or (not $x6067) (= E1_!8873 E1_!8858)) (or $x731 $x3730) (or $x3907 (= S1_V5_!8836 S1_V5_!8855)) (or (not $x4441) (= S1_V5_!8836 S1_V5_!8870)) (or $x1661 (= S1_V5_!8836 S1_V5_!8877)) (or $x2958 (= S1_V5_!8842 S1_V5_!8855)) (or $x1558 (= S1_V5_!8842 S1_V5_!8870)) (or $x4729 (= S1_V5_!8842 S1_V5_!8877)) (or $x1402 (= S1_V5_!8849 S1_V5_!8836)) (or $x1252 (= S1_V5_!8849 S1_V5_!8842)) (or $x736 (= S1_V5_!8849 S1_V5_!8855)) (or $x44 (= S1_V5_!8849 S1_V5_!8864)) (or $x3132 (= S1_V5_!8849 S1_V5_!8870)) (or $x2237 (= S1_V5_!8849 S1_V5_!8877)) (or $x5941 (= S1_V5_!8864 S1_V5_!8836)) (or $x4838 (= S1_V5_!8864 S1_V5_!8842)) (or $x5805 (= S1_V5_!8864 S1_V5_!8855)) (or $x2515 (= S1_V5_!8864 S1_V5_!8870)) (or $x5724 (= S1_V5_!8864 S1_V5_!8877)) (or $x5928 (= S1_V5_!8870 S1_V5_!8855)) (or $x2250 (= S1_V5_!8877 S1_V5_!8855)) (or (not $x5463) (= S1_V5_!8877 S1_V5_!8870)) (or $x4289 (= S1_V5_!8883 S1_V5_!8836)) (or $x1942 (= S1_V5_!8883 S1_V5_!8842)) (or $x5310 (= S1_V5_!8883 S1_V5_!8849)) (or $x2204 (= S1_V5_!8883 S1_V5_!8855)) (or $x5097 (= S1_V5_!8883 S1_V5_!8864)) (or $x1828 $x1954) (or $x1075 (= S1_V5_!8883 S1_V5_!8877)) (or $x4071 (= E2_!8831 E2_!8845)) (= E2_!8831 E2_!8859) $x988 (or $x4071 (= E2_!8832 E2_!8845)) $x1479 (or $x4071 $x2012) (or $x1661 (= S1_V4_!8837 S1_V4_!8878)) (or (not $x4764) (= S1_V4_!8837 S1_V4_!8884)) (or $x1036 (= S1_V4_!8843 S1_V4_!8837)) (or $x2958 (= S1_V4_!8843 S1_V4_!8856)) (or $x1558 (= S1_V4_!8843 S1_V4_!8871)) (or $x4729 (= S1_V4_!8843 S1_V4_!8878)) (or $x3753 (= S1_V4_!8843 S1_V4_!8884)) (or $x1402 (= S1_V4_!8850 S1_V4_!8837)) (or $x1252 (= S1_V4_!8850 S1_V4_!8843)) (or $x736 $x3925) (or $x44 (= S1_V4_!8850 S1_V4_!8865)) (or $x3132 $x1782) (or $x2237 (= S1_V4_!8850 S1_V4_!8878)) (or $x2025 $x4833) (or $x4918 (= S1_V4_!8856 S1_V4_!8837)) (or $x4928 (= S1_V4_!8856 S1_V4_!8878)) (or $x201 (= S1_V4_!8856 S1_V4_!8884)) (or $x5941 (= S1_V4_!8865 S1_V4_!8837)) (or $x4838 (= S1_V4_!8865 S1_V4_!8843)) (or $x5805 $x454) (or $x2515 $x3420) (or $x5724 (= S1_V4_!8865 S1_V4_!8878)) (or $x3298 $x3286) (or $x875 (= S1_V4_!8871 S1_V4_!8837)) (or $x5928 (= S1_V4_!8871 S1_V4_!8856)) (or $x4033 (= S1_V4_!8871 S1_V4_!8878)) (or $x3990 (= S1_V4_!8871 S1_V4_!8884)) (or $x1075 (= S1_V4_!8884 S1_V4_!8878)) (or $x2154 (= S1_V6_!8838 S1_V6_!8851)) $x2565 (or $x1661 (= S1_V6_!8838 S1_V6_!8879)) (or $x1036 (= S1_V6_!8844 S1_V6_!8838)) (or $x1796 $x3689) (or $x2958 $x2990) (or $x176 $x3453) (or $x4729 $x1994) (or $x3753 $x3411) (or $x44 $x3381) (or $x2237 $x1268) (or $x4918 (= S1_V6_!8857 S1_V6_!8838)) (or $x1440 $x3840) (or $x5749 $x762) (or $x4928 $x4382) (or $x201 $x3406) (or $x5724 $x3802) (or $x875 (= S1_V6_!8872 S1_V6_!8838)) (or $x2172 $x5828) (or $x3014 $x6001) (or $x5928 $x3591) (or $x5136 $x2036) (or $x4033 $x240) (or $x3990 $x4141) (or $x4289 (= S1_V6_!8885 S1_V6_!8838)) (or $x5310 $x5299) (or $x5097 $x2827) (or $x1075 $x3797) (or (not MW_S1_V1) W_S1_V1) (or (not MW_S1_V3) W_S1_V3) (not MW_S1_V2) (not MW_S1_V4) (or (not MW_S1_V6) W_S1_V6))))
 (or (not $x3458) (not $x4414) $x1785)))))))))))))))))))))))))))))))))))))))))))))))))))))))))))))))))))))))))))))))))))))))))))))))))))))))))))))))))))))))))))))))))))))))))))))))))))))))))))))))))))))))))))))))))))))))))))))))))))))))))))))))))))))))))))))))))))))))))
 )
 )
 )
 )
 )
 )
 )
 )
 )
 )
 )
 )
 )
 )
 )
 )
 )
 )
 )
 )
 )
 )
 )
 )
 )
 )
 )
 )
 )
 )
 )
 )
 )
 )
 )
 )
 )
 )
 )
 )
 )
 )
 )
 )
 )
 )
 )
 )
 )
 )
 )
 )
 )
 )
 )
 )
 )
 )
 )
 )
 )
 )
 )
 )
 )
 ))
 (let (($x3563 (not R_E1_V5)))
 (let (($x2365 (and W_S1_V6 R_S1_V6)))
 (let (($x92 (and W_S1_V3 R_S1_V3)))
 (let (($x924 (and W_S1_V1 R_S1_V1)))
 (let (($x519 (= DISJ_W_S1_R_S1 (not (or $x924 $x92 R_S1_V5 $x2365)))))
 (let (($x5429 (not R_E2_V5)))
 (let (($x494 (or DISJ_W_S1_R_S1 (not W_S1_V3))))
 (let (($x3083 (or DISJ_W_S1_R_S1 (not W_S1_V1))))
 (let (($x2288 (not W_S1_V4)))
 (let (($x347 (not W_S1_V2)))
 (let (($x251 (not R_E1_V3)))
 (let (($x1588 (not R_E1_V1)))
 (let (($x801 (not R_E2_V3)))
 (let (($x458 (not R_E2_V1)))
 (let (($x1525 (and DISJ_W_S1_R_E2 DISJ_W_S1_R_E1 $x458 $x801 $x1588 $x251 $x347 $x2288 $x3083 $x494 W_S1_V5 $x5429 $x519 $x3563 $x5165 $x5653 $x4647)))
 (and $x1525 $x5346)))))))))))))))))))))
(check-sat)
